\ENCODING=ISO-8859-1
\Problem name: ilog.cplex

Minimize
 obj1: 3 z(1,1)#16 + 3 z(1,1)#17 + 3 z(1,1)#18 + 3 z(1,1)#19
Subject To
 b_0000:   x(1,1,1,0)#0 - x(1,1,1,1)#1 <= 0
 b_1000:   x(2,1,1,0)#2 - x(2,1,1,1)#3 <= 0
 b_2000:   x(3,1,1,0)#4 - x(3,1,1,1)#5 <= 0
 b_3000:   x(4,1,1,0)#6 - x(4,1,1,1)#7 <= 0
 b_0001:   x(1,1,1,1)#1 - x(1,1,1,2)#8 <= 0
 b_1001:   x(2,1,1,1)#3 - x(2,1,1,2)#9 <= 0
 b_2001:   x(3,1,1,1)#5 - x(3,1,1,2)#10 <= 0
 b_3001:   x(4,1,1,1)#7 - x(4,1,1,2)#11 <= 0
 b_0002:   x(1,1,1,2)#8 - x(1,1,1,3)#12 <= 0
 b_1002:   x(2,1,1,2)#9 - x(2,1,1,3)#13 <= 0
 b_2002:   x(3,1,1,2)#10 - x(3,1,1,3)#14 <= 0
 b_3002:   x(4,1,1,2)#11 - x(4,1,1,3)#15 <= 0
 c_0000:   - x(1,1,1,0)#0 + x(2,1,1,1)#3 <= 0
 c_1000:   - x(2,1,1,0)#2 + x(3,1,1,1)#5 <= 0
 c_2000:   - x(3,1,1,0)#4 + x(4,1,1,1)#7 <= 0
 c_0001:   - x(1,1,1,1)#1 + x(2,1,1,2)#9 <= 0
 c_1001:   - x(2,1,1,1)#3 + x(3,1,1,2)#10 <= 0
 c_2001:   - x(3,1,1,1)#5 + x(4,1,1,2)#11 <= 0
 c_0002:   - x(1,1,1,2)#8 + x(2,1,1,3)#13 <= 0
 c_1002:   - x(2,1,1,2)#9 + x(3,1,1,3)#14 <= 0
 c_2002:   - x(3,1,1,2)#10 + x(4,1,1,3)#15 <= 0
 d_01:     - x(1,1,1,0)#0 + x(1,1,1,1)#1 - x(2,1,1,0)#2 + x(2,1,1,1)#3
           - x(3,1,1,0)#4 + x(3,1,1,1)#5 - x(4,1,1,0)#6 + x(4,1,1,1)#7
           - z(1,1)#16 <= 0
 d_02:     - x(1,1,1,1)#1 - x(2,1,1,1)#3 - x(3,1,1,1)#5 - x(4,1,1,1)#7
           + x(1,1,1,2)#8 + x(2,1,1,2)#9 + x(3,1,1,2)#10 + x(4,1,1,2)#11
           - z(1,1)#17 <= 0
 d_03:     - x(1,1,1,2)#8 - x(2,1,1,2)#9 - x(3,1,1,2)#10 - x(4,1,1,2)#11
           + x(1,1,1,3)#12 + x(2,1,1,3)#13 + x(3,1,1,3)#14 + x(4,1,1,3)#15
           - z(1,1)#18 <= 0
 a_e_0000: x(1,1,1,0)#0 - z(1,1)#19 <= 0
 f_0000:   x(1,1,1,0)#0 - x(2,1,1,2)#9 <= 0
 f_0001:   x(1,1,1,1)#1 - x(2,1,1,3)#13 <= 0
 f_1000:   x(2,1,1,0)#2 - x(3,1,1,2)#10 <= 0
 f_1001:   x(2,1,1,1)#3 - x(3,1,1,3)#14 <= 0
 f_2000:   x(3,1,1,0)#4 - x(4,1,1,2)#11 <= 0
 f_2001:   x(3,1,1,1)#5 - x(4,1,1,3)#15 <= 0
 g_000:    x(1,1,1,1)#1  = 1
 h_1000:   x(2,1,1,0)#2  = 0
 h_2000:   x(3,1,1,0)#4  = 0
 h_3000:   x(4,1,1,0)#6  = 0
 i_00:     - x(1,1,1,0)#0 + x(1)#20  = 0
 j_0:      x(1)#20 >= 0
 k_000:    YY(1,1,1)#21 + w(1,1,1,1)#22  = 1
 l_100:    YY(2,1,1)#23 - 0.5 u(2,1,1,2)#24 - 0.5 v(2,1,1,2)#25
           - 0.5 u(2,1,1,3)#26 - 0.5 v(2,1,1,3)#27 - 0.5 u(2,1,1,4)#28
           - 0.5 v(2,1,1,4)#29 - 0.5 u(2,1,1,5)#30 - 0.5 v(2,1,1,5)#31
           - 0.5 w(2,1,1,1)#32 - 0.5 w(2,1,1,0)#33  = 0
 l_200:    YY(3,1,1)#34 - 0.5 u(3,1,1,2)#35 - 0.5 v(3,1,1,2)#36
           - 0.5 u(3,1,1,3)#37 - 0.5 v(3,1,1,3)#38 - 0.5 u(3,1,1,4)#39
           - 0.5 v(3,1,1,4)#40 - 0.5 u(3,1,1,5)#41 - 0.5 v(3,1,1,5)#42
           - 0.5 w(3,1,1,1)#43 - 0.5 w(3,1,1,0)#44  = 0
 l_300:    YY(4,1,1)#45 - 0.5 u(4,1,1,2)#46 - 0.5 v(4,1,1,2)#47
           - 0.5 u(4,1,1,3)#48 - 0.5 v(4,1,1,3)#49 - 0.5 u(4,1,1,4)#50
           - 0.5 v(4,1,1,4)#51 - 0.5 u(4,1,1,5)#52 - 0.5 v(4,1,1,5)#53
           - 0.5 w(4,1,1,1)#54 - 0.5 w(4,1,1,0)#55  = 0
 m_1002:   y(2,1,1,2)#56 - w(2,1,1,2)#57 + w(1,1,1,0)#58  = 0
 m_1005:   y(2,1,1,5)#59 - w(2,1,1,5)#60 + w(1,1,1,3)#61  = 0
 m_2002:   w(2,1,1,0)#33 + y(3,1,1,2)#62 - w(3,1,1,2)#63  = 0
 m_2005:   y(3,1,1,5)#64 - w(3,1,1,5)#65 + w(2,1,1,3)#66  = 0
 m_3002:   w(3,1,1,0)#44 + y(4,1,1,2)#67 - w(4,1,1,2)#68  = 0
 m_3005:   y(4,1,1,5)#69 - w(4,1,1,5)#70 + w(3,1,1,3)#71  = 0
 n_0001:   x(1,1,1,0)#0 - x(1,1,1,1)#1 + w(1,1,1,1)#22  = 0
 n_1001:   x(2,1,1,0)#2 - x(2,1,1,1)#3 + w(2,1,1,1)#32  = 0
 n_2001:   x(3,1,1,0)#4 - x(3,1,1,1)#5 + w(3,1,1,1)#43  = 0
 n_3001:   x(4,1,1,0)#6 - x(4,1,1,1)#7 + w(4,1,1,1)#54  = 0
 n_0002:   x(1,1,1,1)#1 - x(1,1,1,2)#8 + w(1,1,1,2)#72  = 0
 n_1002:   x(2,1,1,1)#3 - x(2,1,1,2)#9 + w(2,1,1,2)#57  = 0
 n_2002:   x(3,1,1,1)#5 - x(3,1,1,2)#10 + w(3,1,1,2)#63  = 0
 n_3002:   x(4,1,1,1)#7 - x(4,1,1,2)#11 + w(4,1,1,2)#68  = 0
 n_0003:   x(1,1,1,2)#8 - x(1,1,1,3)#12 + w(1,1,1,3)#61  = 0
 n_1003:   x(2,1,1,2)#9 - x(2,1,1,3)#13 + w(2,1,1,3)#66  = 0
 n_2003:   x(3,1,1,2)#10 - x(3,1,1,3)#14 + w(3,1,1,3)#71  = 0
 n_3003:   x(4,1,1,2)#11 - x(4,1,1,3)#15 + w(4,1,1,3)#73  = 0
 o_0000:   - x(1,1,1,0)#0 + w(1,1,1,0)#58  = 0
 o_1000:   - x(2,1,1,0)#2 + w(2,1,1,0)#33  = 0
 o_2000:   - x(3,1,1,0)#4 + w(3,1,1,0)#44  = 0
 o_3000:   - x(4,1,1,0)#6 + w(4,1,1,0)#55  = 0
 p_0004:   w(1,1,1,4)#74  = 0
 p_0005:   w(1,1,1,5)#75  = 0
 p_1004:   w(2,1,1,4)#76  = 0
 p_1005:   w(2,1,1,5)#60  = 0
 p_2004:   w(3,1,1,4)#77  = 0
 p_2005:   w(3,1,1,5)#65  = 0
 p_3004:   w(4,1,1,4)#78  = 0
 p_3005:   w(4,1,1,5)#70  = 0
 r_0000:   y(1,1,1,0)#79 - u(1,1,1,0)#80 + v(1,1,1,0)#81  = 0
 s_0000:   u(1,1,1,0)#80 + v(1,1,1,0)#81 <= 1
 r_1000:   y(2,1,1,0)#82 - u(2,1,1,0)#83 + v(2,1,1,0)#84  = 0
 s_1000:   u(2,1,1,0)#83 + v(2,1,1,0)#84 <= 1
 r_2000:   y(3,1,1,0)#85 - u(3,1,1,0)#86 + v(3,1,1,0)#87  = 0
 s_2000:   u(3,1,1,0)#86 + v(3,1,1,0)#87 <= 1
 r_3000:   y(4,1,1,0)#88 - u(4,1,1,0)#89 + v(4,1,1,0)#90  = 0
 s_3000:   u(4,1,1,0)#89 + v(4,1,1,0)#90 <= 1
 r_0001:   y(1,1,1,1)#91 - u(1,1,1,1)#92 + v(1,1,1,1)#93  = 0
 s_0001:   u(1,1,1,1)#92 + v(1,1,1,1)#93 <= 1
 r_1001:   y(2,1,1,1)#94 - u(2,1,1,1)#95 + v(2,1,1,1)#96  = 0
 s_1001:   u(2,1,1,1)#95 + v(2,1,1,1)#96 <= 1
 r_2001:   y(3,1,1,1)#97 - u(3,1,1,1)#98 + v(3,1,1,1)#99  = 0
 s_2001:   u(3,1,1,1)#98 + v(3,1,1,1)#99 <= 1
 r_3001:   y(4,1,1,1)#100 - u(4,1,1,1)#101 + v(4,1,1,1)#102  = 0
 s_3001:   u(4,1,1,1)#101 + v(4,1,1,1)#102 <= 1
 r_0002:   y(1,1,1,2)#103 - u(1,1,1,2)#104 + v(1,1,1,2)#105  = 0
 s_0002:   u(1,1,1,2)#104 + v(1,1,1,2)#105 <= 1
 r_1002:   - u(2,1,1,2)#24 + v(2,1,1,2)#25 + y(2,1,1,2)#56  = 0
 s_1002:   u(2,1,1,2)#24 + v(2,1,1,2)#25 <= 1
 r_2002:   - u(3,1,1,2)#35 + v(3,1,1,2)#36 + y(3,1,1,2)#62  = 0
 s_2002:   u(3,1,1,2)#35 + v(3,1,1,2)#36 <= 1
 r_3002:   - u(4,1,1,2)#46 + v(4,1,1,2)#47 + y(4,1,1,2)#67  = 0
 s_3002:   u(4,1,1,2)#46 + v(4,1,1,2)#47 <= 1
 r_0003:   y(1,1,1,3)#106 - u(1,1,1,3)#107 + v(1,1,1,3)#108  = 0
 s_0003:   u(1,1,1,3)#107 + v(1,1,1,3)#108 <= 1
 r_1003:   - u(2,1,1,3)#26 + v(2,1,1,3)#27 + y(2,1,1,3)#109  = 0
 s_1003:   u(2,1,1,3)#26 + v(2,1,1,3)#27 <= 1
 r_2003:   - u(3,1,1,3)#37 + v(3,1,1,3)#38 + y(3,1,1,3)#110  = 0
 s_2003:   u(3,1,1,3)#37 + v(3,1,1,3)#38 <= 1
 r_3003:   - u(4,1,1,3)#48 + v(4,1,1,3)#49 + y(4,1,1,3)#111  = 0
 s_3003:   u(4,1,1,3)#48 + v(4,1,1,3)#49 <= 1
 r_0004:   y(1,1,1,4)#112 - u(1,1,1,4)#113 + v(1,1,1,4)#114  = 0
 s_0004:   u(1,1,1,4)#113 + v(1,1,1,4)#114 <= 1
 r_1004:   - u(2,1,1,4)#28 + v(2,1,1,4)#29 + y(2,1,1,4)#115  = 0
 s_1004:   u(2,1,1,4)#28 + v(2,1,1,4)#29 <= 1
 r_2004:   - u(3,1,1,4)#39 + v(3,1,1,4)#40 + y(3,1,1,4)#116  = 0
 s_2004:   u(3,1,1,4)#39 + v(3,1,1,4)#40 <= 1
 r_3004:   - u(4,1,1,4)#50 + v(4,1,1,4)#51 + y(4,1,1,4)#117  = 0
 s_3004:   u(4,1,1,4)#50 + v(4,1,1,4)#51 <= 1
 r_0005:   y(1,1,1,5)#118 - u(1,1,1,5)#119 + v(1,1,1,5)#120  = 0
 s_0005:   u(1,1,1,5)#119 + v(1,1,1,5)#120 <= 1
 r_1005:   - u(2,1,1,5)#30 + v(2,1,1,5)#31 + y(2,1,1,5)#59  = 0
 s_1005:   u(2,1,1,5)#30 + v(2,1,1,5)#31 <= 1
 r_2005:   - u(3,1,1,5)#41 + v(3,1,1,5)#42 + y(3,1,1,5)#64  = 0
 s_2005:   u(3,1,1,5)#41 + v(3,1,1,5)#42 <= 1
 r_3005:   - u(4,1,1,5)#52 + v(4,1,1,5)#53 + y(4,1,1,5)#69  = 0
 s_3005:   u(4,1,1,5)#52 + v(4,1,1,5)#53 <= 1
Bounds
 0 <= x(1,1,1,0)#0 <= 1
 0 <= x(1,1,1,1)#1 <= 1
 0 <= x(2,1,1,0)#2 <= 1
 0 <= x(2,1,1,1)#3 <= 1
 0 <= x(3,1,1,0)#4 <= 1
 0 <= x(3,1,1,1)#5 <= 1
 0 <= x(4,1,1,0)#6 <= 1
 0 <= x(4,1,1,1)#7 <= 1
 0 <= x(1,1,1,2)#8 <= 1
 0 <= x(2,1,1,2)#9 <= 1
 0 <= x(3,1,1,2)#10 <= 1
 0 <= x(4,1,1,2)#11 <= 1
 0 <= x(1,1,1,3)#12 <= 1
 0 <= x(2,1,1,3)#13 <= 1
 0 <= x(3,1,1,3)#14 <= 1
 0 <= x(4,1,1,3)#15 <= 1
 0 <= z(1,1)#16 <= 1
 0 <= z(1,1)#17 <= 1
 0 <= z(1,1)#18 <= 1
 0 <= z(1,1)#19 <= 1
 0 <= x(1)#20 <= 1
 0 <= YY(1,1,1)#21 <= 1
 0 <= w(1,1,1,1)#22 <= 1
 0 <= YY(2,1,1)#23 <= 1
 0 <= u(2,1,1,2)#24 <= 1
 0 <= v(2,1,1,2)#25 <= 1
 0 <= u(2,1,1,3)#26 <= 1
 0 <= v(2,1,1,3)#27 <= 1
 0 <= u(2,1,1,4)#28 <= 1
 0 <= v(2,1,1,4)#29 <= 1
 0 <= u(2,1,1,5)#30 <= 1
 0 <= v(2,1,1,5)#31 <= 1
 0 <= w(2,1,1,1)#32 <= 1
 0 <= w(2,1,1,0)#33 <= 1
 0 <= YY(3,1,1)#34 <= 1
 0 <= u(3,1,1,2)#35 <= 1
 0 <= v(3,1,1,2)#36 <= 1
 0 <= u(3,1,1,3)#37 <= 1
 0 <= v(3,1,1,3)#38 <= 1
 0 <= u(3,1,1,4)#39 <= 1
 0 <= v(3,1,1,4)#40 <= 1
 0 <= u(3,1,1,5)#41 <= 1
 0 <= v(3,1,1,5)#42 <= 1
 0 <= w(3,1,1,1)#43 <= 1
 0 <= w(3,1,1,0)#44 <= 1
 0 <= YY(4,1,1)#45 <= 1
 0 <= u(4,1,1,2)#46 <= 1
 0 <= v(4,1,1,2)#47 <= 1
 0 <= u(4,1,1,3)#48 <= 1
 0 <= v(4,1,1,3)#49 <= 1
 0 <= u(4,1,1,4)#50 <= 1
 0 <= v(4,1,1,4)#51 <= 1
 0 <= u(4,1,1,5)#52 <= 1
 0 <= v(4,1,1,5)#53 <= 1
 0 <= w(4,1,1,1)#54 <= 1
 0 <= w(4,1,1,0)#55 <= 1
 0 <= y(2,1,1,2)#56 <= 1
 0 <= w(2,1,1,2)#57 <= 1
 0 <= w(1,1,1,0)#58 <= 1
 0 <= y(2,1,1,5)#59 <= 1
 0 <= w(2,1,1,5)#60 <= 1
 0 <= w(1,1,1,3)#61 <= 1
 0 <= y(3,1,1,2)#62 <= 1
 0 <= w(3,1,1,2)#63 <= 1
 0 <= y(3,1,1,5)#64 <= 1
 0 <= w(3,1,1,5)#65 <= 1
 0 <= w(2,1,1,3)#66 <= 1
 0 <= y(4,1,1,2)#67 <= 1
 0 <= w(4,1,1,2)#68 <= 1
 0 <= y(4,1,1,5)#69 <= 1
 0 <= w(4,1,1,5)#70 <= 1
 0 <= w(3,1,1,3)#71 <= 1
 0 <= w(1,1,1,2)#72 <= 1
 0 <= w(4,1,1,3)#73 <= 1
 0 <= w(1,1,1,4)#74 <= 1
 0 <= w(1,1,1,5)#75 <= 1
 0 <= w(2,1,1,4)#76 <= 1
 0 <= w(3,1,1,4)#77 <= 1
 0 <= w(4,1,1,4)#78 <= 1
 0 <= y(1,1,1,0)#79 <= 1
 0 <= u(1,1,1,0)#80 <= 1
 0 <= v(1,1,1,0)#81 <= 1
 0 <= y(2,1,1,0)#82 <= 1
 0 <= u(2,1,1,0)#83 <= 1
 0 <= v(2,1,1,0)#84 <= 1
 0 <= y(3,1,1,0)#85 <= 1
 0 <= u(3,1,1,0)#86 <= 1
 0 <= v(3,1,1,0)#87 <= 1
 0 <= y(4,1,1,0)#88 <= 1
 0 <= u(4,1,1,0)#89 <= 1
 0 <= v(4,1,1,0)#90 <= 1
 0 <= y(1,1,1,1)#91 <= 1
 0 <= u(1,1,1,1)#92 <= 1
 0 <= v(1,1,1,1)#93 <= 1
 0 <= y(2,1,1,1)#94 <= 1
 0 <= u(2,1,1,1)#95 <= 1
 0 <= v(2,1,1,1)#96 <= 1
 0 <= y(3,1,1,1)#97 <= 1
 0 <= u(3,1,1,1)#98 <= 1
 0 <= v(3,1,1,1)#99 <= 1
 0 <= y(4,1,1,1)#100 <= 1
 0 <= u(4,1,1,1)#101 <= 1
 0 <= v(4,1,1,1)#102 <= 1
 0 <= y(1,1,1,2)#103 <= 1
 0 <= u(1,1,1,2)#104 <= 1
 0 <= v(1,1,1,2)#105 <= 1
 0 <= y(1,1,1,3)#106 <= 1
 0 <= u(1,1,1,3)#107 <= 1
 0 <= v(1,1,1,3)#108 <= 1
 0 <= y(2,1,1,3)#109 <= 1
 0 <= y(3,1,1,3)#110 <= 1
 0 <= y(4,1,1,3)#111 <= 1
 0 <= y(1,1,1,4)#112 <= 1
 0 <= u(1,1,1,4)#113 <= 1
 0 <= v(1,1,1,4)#114 <= 1
 0 <= y(2,1,1,4)#115 <= 1
 0 <= y(3,1,1,4)#116 <= 1
 0 <= y(4,1,1,4)#117 <= 1
 0 <= y(1,1,1,5)#118 <= 1
 0 <= u(1,1,1,5)#119 <= 1
 0 <= v(1,1,1,5)#120 <= 1
Binaries
 x(1,1,1,0)#0  x(1,1,1,1)#1  x(2,1,1,0)#2  x(2,1,1,1)#3  x(3,1,1,0)#4 
 x(3,1,1,1)#5  x(4,1,1,0)#6  x(4,1,1,1)#7  x(1,1,1,2)#8  x(2,1,1,2)#9 
 x(3,1,1,2)#10  x(4,1,1,2)#11  x(1,1,1,3)#12  x(2,1,1,3)#13  x(3,1,1,3)#14 
 x(4,1,1,3)#15  z(1,1)#16  z(1,1)#17  z(1,1)#18  z(1,1)#19  x(1)#20 
 YY(1,1,1)#21  w(1,1,1,1)#22  YY(2,1,1)#23  u(2,1,1,2)#24  v(2,1,1,2)#25 
 u(2,1,1,3)#26  v(2,1,1,3)#27  u(2,1,1,4)#28  v(2,1,1,4)#29  u(2,1,1,5)#30 
 v(2,1,1,5)#31  w(2,1,1,1)#32  w(2,1,1,0)#33  YY(3,1,1)#34  u(3,1,1,2)#35 
 v(3,1,1,2)#36  u(3,1,1,3)#37  v(3,1,1,3)#38  u(3,1,1,4)#39  v(3,1,1,4)#40 
 u(3,1,1,5)#41  v(3,1,1,5)#42  w(3,1,1,1)#43  w(3,1,1,0)#44  YY(4,1,1)#45 
 u(4,1,1,2)#46  v(4,1,1,2)#47  u(4,1,1,3)#48  v(4,1,1,3)#49  u(4,1,1,4)#50 
 v(4,1,1,4)#51  u(4,1,1,5)#52  v(4,1,1,5)#53  w(4,1,1,1)#54  w(4,1,1,0)#55 
 y(2,1,1,2)#56  w(2,1,1,2)#57  w(1,1,1,0)#58  y(2,1,1,5)#59  w(2,1,1,5)#60 
 w(1,1,1,3)#61  y(3,1,1,2)#62  w(3,1,1,2)#63  y(3,1,1,5)#64  w(3,1,1,5)#65 
 w(2,1,1,3)#66  y(4,1,1,2)#67  w(4,1,1,2)#68  y(4,1,1,5)#69  w(4,1,1,5)#70 
 w(3,1,1,3)#71  w(1,1,1,2)#72  w(4,1,1,3)#73  w(1,1,1,4)#74  w(1,1,1,5)#75 
 w(2,1,1,4)#76  w(3,1,1,4)#77  w(4,1,1,4)#78  y(1,1,1,0)#79  u(1,1,1,0)#80 
 v(1,1,1,0)#81  y(2,1,1,0)#82  u(2,1,1,0)#83  v(2,1,1,0)#84  y(3,1,1,0)#85 
 u(3,1,1,0)#86  v(3,1,1,0)#87  y(4,1,1,0)#88  u(4,1,1,0)#89  v(4,1,1,0)#90 
 y(1,1,1,1)#91  u(1,1,1,1)#92  v(1,1,1,1)#93  y(2,1,1,1)#94  u(2,1,1,1)#95 
 v(2,1,1,1)#96  y(3,1,1,1)#97  u(3,1,1,1)#98  v(3,1,1,1)#99  y(4,1,1,1)#100 
 u(4,1,1,1)#101  v(4,1,1,1)#102  y(1,1,1,2)#103  u(1,1,1,2)#104 
 v(1,1,1,2)#105  y(1,1,1,3)#106  u(1,1,1,3)#107  v(1,1,1,3)#108 
 y(2,1,1,3)#109  y(3,1,1,3)#110  y(4,1,1,3)#111  y(1,1,1,4)#112 
 u(1,1,1,4)#113  v(1,1,1,4)#114  y(2,1,1,4)#115  y(3,1,1,4)#116 
 y(4,1,1,4)#117  y(1,1,1,5)#118  u(1,1,1,5)#119  v(1,1,1,5)#120 
End
